20	5
0	5	12	2	13	1	3
1	1	11
2	0
3	1	16
4	2	17	14
5	1	10
6	0
7	1	9
8	1	5
9	1	20
10	1	19
11	1	6
12	1	13
13	1	15
14	0
15	1	4
16	1	18
17	2	8	7
18	1	9
19	1	18
20	1	21
21	0
0	0	0	0	0	0	0
1	3	0	1	3	1	4
2	10	5	0	2	0	0
3	4	5	4	3	0	0
4	5	0	2	4	5	1
5	8	1	1	5	1	0
6	8	4	3	0	2	2
7	2	4	4	5	2	3
8	3	4	2	3	0	2
9	9	0	0	2	1	0
10	7	3	5	2	1	2
11	1	5	0	3	0	0
12	7	0	0	3	4	0
13	4	0	5	1	5	3
14	2	5	0	5	0	0
15	5	1	1	4	3	4
16	9	2	4	2	2	3
17	3	1	0	5	5	3
18	3	4	0	2	2	5
19	6	5	1	5	5	1
20	1	5	2	5	1	5
21	0	0	0	0	0	0
5	8	8	8	6
